(set-option :produce-models true)
(set-logic QF_LRA)
(set-info :notes | Strip-packing problem.|)
(declare-fun x0 () Real)
(declare-fun y0 () Real)
(declare-fun x1 () Real)
(declare-fun y1 () Real)
(declare-fun x2 () Real)
(declare-fun y2 () Real)
(declare-fun x3 () Real)
(declare-fun y3 () Real)
(declare-fun x4 () Real)
(declare-fun y4 () Real)
(declare-fun x5 () Real)
(declare-fun y5 () Real)
(declare-fun x6 () Real)
(declare-fun y6 () Real)
(declare-fun x7 () Real)
(declare-fun y7 () Real)
(declare-fun x8 () Real)
(declare-fun y8 () Real)
(declare-fun z () Real)
(declare-fun c () Real)
(assert (and (= c z) (and (>= x0 0) 
(and (>= y0 0) 
(and (>= x1 0) 
(and (>= y1 0) 
(and (>= x2 0) 
(and (>= y2 0) 
(and (>= x3 0) 
(and (>= y3 0) 
(and (>= x4 0) 
(and (>= y4 0) 
(and (>= x5 0) 
(and (>= y5 0) 
(and (>= x6 0) 
(and (>= y6 0) 
(and (>= x7 0) 
(and (>= y7 0) 
(and (>= x8 0) 
(and (>= y8 0) 
(and (>= z 0) 
(and (>= c 0) 
(and (<= (+ x0 0.0034430075) z) 
(and (<= 0.9554436175 y0) 
(and (<= y0 1.0) 
(and (<= x0 (- 3.0482045556 0.0034430075)) 
(and (>= x0 0) 
(and (<= (+ x1 0.3465274661) z) 
(and (<= 0.8397704435 y1) 
(and (<= y1 1.0) 
(and (<= x1 (- 3.0482045556 0.3465274661)) 
(and (>= x1 0) 
(and (<= (+ x2 0.4219086989) z) 
(and (<= 0.7939017679 y2) 
(and (<= y2 1.0) 
(and (<= x2 (- 3.0482045556 0.4219086989)) 
(and (>= x2 0) 
(and (<= (+ x3 0.6183940141) z) 
(and (<= 0.7163817821 y3) 
(and (<= y3 1.0) 
(and (<= x3 (- 3.0482045556 0.6183940141)) 
(and (>= x3 0) 
(and (<= (+ x4 0.4793306404) z) 
(and (<= 0.6722271884 y4) 
(and (<= y4 1.0) 
(and (<= x4 (- 3.0482045556 0.4793306404)) 
(and (>= x4 0) 
(and (<= (+ x5 0.4285974053) z) 
(and (<= 0.5711109453 y5) 
(and (<= y5 1.0) 
(and (<= x5 (- 3.0482045556 0.4285974053)) 
(and (>= x5 0) 
(and (<= (+ x6 0.1398389627) z) 
(and (<= 0.396809389 y6) 
(and (<= y6 1.0) 
(and (<= x6 (- 3.0482045556 0.1398389627)) 
(and (>= x6 0) 
(and (<= (+ x7 0.1866787486) z) 
(and (<= 0.1764111275 y7) 
(and (<= y7 1.0) 
(and (<= x7 (- 3.0482045556 0.1866787486)) 
(and (>= x7 0) 
(and (<= (+ x8 0.7500033233) z) 
(and (<= 0.0471830909 y8) 
(and (<= y8 1.0) 
(and (<= x8 (- 3.0482045556 0.7500033233)) 
(and (>= x8 0) 
(and (<= c 3.0482045556) 
(and (or (<= (+ x0 0.0034430075) x1) (or (<= (+ x1 0.3465274661) x0) (or (>= (- y0 0.9554436175) y1) (or (>= (- y1 0.8397704435) y0))))) 
(and (or (<= (+ x0 0.0034430075) x2) (or (<= (+ x2 0.4219086989) x0) (or (>= (- y0 0.9554436175) y2) (or (>= (- y2 0.7939017679) y0))))) 
(and (or (<= (+ x0 0.0034430075) x3) (or (<= (+ x3 0.6183940141) x0) (or (>= (- y0 0.9554436175) y3) (or (>= (- y3 0.7163817821) y0))))) 
(and (or (<= (+ x0 0.0034430075) x4) (or (<= (+ x4 0.4793306404) x0) (or (>= (- y0 0.9554436175) y4) (or (>= (- y4 0.6722271884) y0))))) 
(and (or (<= (+ x0 0.0034430075) x5) (or (<= (+ x5 0.4285974053) x0) (or (>= (- y0 0.9554436175) y5) (or (>= (- y5 0.5711109453) y0))))) 
(and (or (<= (+ x0 0.0034430075) x6) (or (<= (+ x6 0.1398389627) x0) (or (>= (- y0 0.9554436175) y6) (or (>= (- y6 0.396809389) y0))))) 
(and (or (<= (+ x0 0.0034430075) x7) (or (<= (+ x7 0.1866787486) x0) (or (>= (- y0 0.9554436175) y7) (or (>= (- y7 0.1764111275) y0))))) 
(and (or (<= (+ x0 0.0034430075) x8) (or (<= (+ x8 0.7500033233) x0) (or (>= (- y0 0.9554436175) y8) (or (>= (- y8 0.0471830909) y0))))) 
(and (or (<= (+ x1 0.3465274661) x2) (or (<= (+ x2 0.4219086989) x1) (or (>= (- y1 0.8397704435) y2) (or (>= (- y2 0.7939017679) y1))))) 
(and (or (<= (+ x1 0.3465274661) x3) (or (<= (+ x3 0.6183940141) x1) (or (>= (- y1 0.8397704435) y3) (or (>= (- y3 0.7163817821) y1))))) 
(and (or (<= (+ x1 0.3465274661) x4) (or (<= (+ x4 0.4793306404) x1) (or (>= (- y1 0.8397704435) y4) (or (>= (- y4 0.6722271884) y1))))) 
(and (or (<= (+ x1 0.3465274661) x5) (or (<= (+ x5 0.4285974053) x1) (or (>= (- y1 0.8397704435) y5) (or (>= (- y5 0.5711109453) y1))))) 
(and (or (<= (+ x1 0.3465274661) x6) (or (<= (+ x6 0.1398389627) x1) (or (>= (- y1 0.8397704435) y6) (or (>= (- y6 0.396809389) y1))))) 
(and (or (<= (+ x1 0.3465274661) x7) (or (<= (+ x7 0.1866787486) x1) (or (>= (- y1 0.8397704435) y7) (or (>= (- y7 0.1764111275) y1))))) 
(and (or (<= (+ x1 0.3465274661) x8) (or (<= (+ x8 0.7500033233) x1) (or (>= (- y1 0.8397704435) y8) (or (>= (- y8 0.0471830909) y1))))) 
(and (or (<= (+ x2 0.4219086989) x3) (or (<= (+ x3 0.6183940141) x2) (or (>= (- y2 0.7939017679) y3) (or (>= (- y3 0.7163817821) y2))))) 
(and (or (<= (+ x2 0.4219086989) x4) (or (<= (+ x4 0.4793306404) x2) (or (>= (- y2 0.7939017679) y4) (or (>= (- y4 0.6722271884) y2))))) 
(and (or (<= (+ x2 0.4219086989) x5) (or (<= (+ x5 0.4285974053) x2) (or (>= (- y2 0.7939017679) y5) (or (>= (- y5 0.5711109453) y2))))) 
(and (or (<= (+ x2 0.4219086989) x6) (or (<= (+ x6 0.1398389627) x2) (or (>= (- y2 0.7939017679) y6) (or (>= (- y6 0.396809389) y2))))) 
(and (or (<= (+ x2 0.4219086989) x7) (or (<= (+ x7 0.1866787486) x2) (or (>= (- y2 0.7939017679) y7) (or (>= (- y7 0.1764111275) y2))))) 
(and (or (<= (+ x2 0.4219086989) x8) (or (<= (+ x8 0.7500033233) x2) (or (>= (- y2 0.7939017679) y8) (or (>= (- y8 0.0471830909) y2))))) 
(and (or (<= (+ x3 0.6183940141) x4) (or (<= (+ x4 0.4793306404) x3) (or (>= (- y3 0.7163817821) y4) (or (>= (- y4 0.6722271884) y3))))) 
(and (or (<= (+ x3 0.6183940141) x5) (or (<= (+ x5 0.4285974053) x3) (or (>= (- y3 0.7163817821) y5) (or (>= (- y5 0.5711109453) y3))))) 
(and (or (<= (+ x3 0.6183940141) x6) (or (<= (+ x6 0.1398389627) x3) (or (>= (- y3 0.7163817821) y6) (or (>= (- y6 0.396809389) y3))))) 
(and (or (<= (+ x3 0.6183940141) x7) (or (<= (+ x7 0.1866787486) x3) (or (>= (- y3 0.7163817821) y7) (or (>= (- y7 0.1764111275) y3))))) 
(and (or (<= (+ x3 0.6183940141) x8) (or (<= (+ x8 0.7500033233) x3) (or (>= (- y3 0.7163817821) y8) (or (>= (- y8 0.0471830909) y3))))) 
(and (or (<= (+ x4 0.4793306404) x5) (or (<= (+ x5 0.4285974053) x4) (or (>= (- y4 0.6722271884) y5) (or (>= (- y5 0.5711109453) y4))))) 
(and (or (<= (+ x4 0.4793306404) x6) (or (<= (+ x6 0.1398389627) x4) (or (>= (- y4 0.6722271884) y6) (or (>= (- y6 0.396809389) y4))))) 
(and (or (<= (+ x4 0.4793306404) x7) (or (<= (+ x7 0.1866787486) x4) (or (>= (- y4 0.6722271884) y7) (or (>= (- y7 0.1764111275) y4))))) 
(and (or (<= (+ x4 0.4793306404) x8) (or (<= (+ x8 0.7500033233) x4) (or (>= (- y4 0.6722271884) y8) (or (>= (- y8 0.0471830909) y4))))) 
(and (or (<= (+ x5 0.4285974053) x6) (or (<= (+ x6 0.1398389627) x5) (or (>= (- y5 0.5711109453) y6) (or (>= (- y6 0.396809389) y5))))) 
(and (or (<= (+ x5 0.4285974053) x7) (or (<= (+ x7 0.1866787486) x5) (or (>= (- y5 0.5711109453) y7) (or (>= (- y7 0.1764111275) y5))))) 
(and (or (<= (+ x5 0.4285974053) x8) (or (<= (+ x8 0.7500033233) x5) (or (>= (- y5 0.5711109453) y8) (or (>= (- y8 0.0471830909) y5))))) 
(and (or (<= (+ x6 0.1398389627) x7) (or (<= (+ x7 0.1866787486) x6) (or (>= (- y6 0.396809389) y7) (or (>= (- y7 0.1764111275) y6))))) 
(and (or (<= (+ x6 0.1398389627) x8) (or (<= (+ x8 0.7500033233) x6) (or (>= (- y6 0.396809389) y8) (or (>= (- y8 0.0471830909) y6))))) 
(and (or (<= (+ x7 0.1866787486) x8) (or (<= (+ x8 0.7500033233) x7) (or (>= (- y7 0.1764111275) y8) (or (>= (- y8 0.0471830909) y7))))) ))))))))))))))))))))))))))))))))))))))))))))))))))))))))))))))))))))))))))))))))))))))))))))))))))))))))
(minimize c)
(check-sat)
(get-objectives)
(exit)
